c Output_time 26.03.2020 18:13:32_+0100 1585242812481609750
c ** Program information **
c program_name                          "QBRG_debug"
c version                               "0.3.20"
c date                                  "25.3.2020"
c gid_id                                "673970833836058123f633335630c185360d632e"
c author                                "Oliver Kullmann"
c url                                   "https://github.com/OKullmann/oklibrary/blob/master/Satisfiability/Transformers/Generators/Random/QBRG.cpp"
c ** Machine information **
c machine_name                          "chyna-Lenovo-G50-70"
c bogomips                              3791.08
c ** Compilation information **
c compiler_version                      "g++ 7.5.0"
c compilation_date                      "Mar_26_2020 11:16:30"
c compilation_options                   "--std=c++17 -pedantic -fmax-errors=5 -Wall -Wextra -g -D_GLIBCXX_DEBUG"
c NDEBUG                                0
c OPTIMIZE                              0
c ** Parameters **
c command-line                          "./QBRG_debug" "e40 a40 40" "594*1,1|2-2,1|3-3,1" "" "1,t" ""
c output                                "QuBlRaGe_120_594_1585242812481447582.qdimacs"
c options                               "filtered,renamed"
c num_quantifier_blocks                 3
c  quantifier_blocks                    1:e1-40 2:a41-80 3:e81-120
c num_clause-blocks                     1
c  clause-blocks                        594 * {1-40,1,1/2} | {41-80,1,1/2} | {81-120,1,1/2}
c num_e-seeds                           30+2=32
c  e-seeds                              1 0 1 0 4 120 2 40 1 40 0 40 1 594 3 1 1 1 1 2 2 2 1 1 2 3 3 1 1 2 1 1585242812481446710
p cnf 120 594
e 1 2 3 4 5 6 7 8 9 10 11 12 13 14 15 16 17 18 19 20 21 22 23 24 25 26 27 28 29 30 31 32 33 34 35 36 37 38 39 40 0
a 41 42 43 44 45 46 47 48 49 50 51 52 53 54 55 56 57 58 59 60 61 62 63 64 65 66 67 68 69 70 71 72 73 74 75 76 77 78 79 80 0
e 81 82 83 84 85 86 87 88 89 90 91 92 93 94 95 96 97 98 99 100 101 102 103 104 105 106 107 108 109 110 111 112 113 114 115 116 117 118 119 120 0
13 -45 -81 0
-37 47 -81 0
20 59 -81 0
19 -60 -81 0
22 64 -81 0
20 -76 -81 0
32 77 -81 0
-21 -43 81 0
-39 -48 81 0
5 51 81 0
18 -54 81 0
19 -59 81 0
-24 -72 81 0
9 75 81 0
-37 -76 81 0
-11 41 -82 0
-28 45 -82 0
21 54 -82 0
12 -61 -82 0
-32 -67 -82 0
20 -70 -82 0
-7 -73 -82 0
-5 -46 82 0
-5 58 82 0
11 67 82 0
22 -75 82 0
-20 -77 82 0
5 -41 -83 0
26 -43 -83 0
-1 -51 -83 0
-36 54 -83 0
9 56 -83 0
4 -64 -83 0
18 -66 -83 0
-15 -42 83 0
25 42 83 0
8 44 83 0
-39 46 83 0
-11 -50 83 0
-38 -50 83 0
-5 52 83 0
-20 62 83 0
25 -63 83 0
10 -65 83 0
-34 70 83 0
24 -71 83 0
-23 -73 83 0
18 77 83 0
22 41 -84 0
-28 -44 -84 0
-17 -65 -84 0
-21 -68 -84 0
-33 -71 -84 0
4 -77 -84 0
-33 51 84 0
2 53 84 0
-33 -56 84 0
-13 62 84 0
-40 66 84 0
-25 69 84 0
17 -70 84 0
34 -45 -85 0
26 48 -85 0
-25 -52 -85 0
-24 66 -85 0
-10 -67 -85 0
-12 67 -85 0
-37 -75 -85 0
-4 -43 85 0
6 -47 85 0
-21 -47 85 0
-7 -48 85 0
-18 -52 85 0
-38 -52 85 0
-19 56 85 0
11 -57 85 0
29 -58 85 0
35 -59 85 0
-19 -63 85 0
30 68 85 0
23 77 85 0
-3 42 -86 0
30 43 -86 0
6 55 -86 0
29 55 -86 0
31 -56 -86 0
4 -60 -86 0
-20 60 -86 0
15 -70 -86 0
16 74 -86 0
34 75 -86 0
-4 42 86 0
-4 -43 86 0
-22 45 86 0
-15 -56 86 0
-20 58 86 0
-34 -60 86 0
-1 60 86 0
-10 65 86 0
-13 -73 86 0
-38 -78 86 0
-33 -42 -87 0
19 42 -87 0
-27 54 -87 0
39 -56 -87 0
-14 -59 -87 0
17 60 -87 0
1 -44 87 0
17 48 87 0
12 50 87 0
10 52 87 0
10 -53 87 0
-27 -57 87 0
1 67 87 0
18 71 87 0
-6 72 87 0
7 73 87 0
-14 -49 -88 0
35 -49 -88 0
-37 -50 -88 0
-29 54 -88 0
2 -59 -88 0
-24 -68 -88 0
21 -72 -88 0
-28 -75 -88 0
8 -43 88 0
-36 48 88 0
25 66 88 0
-27 68 88 0
-9 -72 88 0
22 -42 -89 0
35 42 -89 0
-31 -46 -89 0
30 -47 -89 0
-20 54 -89 0
18 -58 -89 0
28 -63 -89 0
-20 68 -89 0
-5 45 89 0
36 45 89 0
15 54 89 0
23 -67 89 0
-33 69 89 0
1 71 89 0
-2 78 89 0
8 44 -90 0
28 -45 -90 0
-14 50 -90 0
-36 53 -90 0
-10 -60 -90 0
31 66 -90 0
-10 -74 -90 0
-19 80 -90 0
40 43 90 0
16 53 90 0
-23 55 90 0
3 63 90 0
-24 -72 90 0
34 76 90 0
32 79 90 0
-7 47 -91 0
-11 47 -91 0
-33 47 -91 0
-10 54 -91 0
-19 -65 -91 0
28 -68 -91 0
20 77 -91 0
14 -42 91 0
-30 -55 91 0
-31 55 91 0
-38 -58 91 0
-16 -66 91 0
8 -69 91 0
29 71 91 0
-34 -77 91 0
-32 42 -92 0
29 -46 -92 0
39 -55 -92 0
-2 -58 -92 0
25 -68 -92 0
5 71 -92 0
21 -72 -92 0
-23 -74 -92 0
32 76 -92 0
-35 -78 -92 0
-9 -45 92 0
14 -52 92 0
16 -57 92 0
-26 -63 92 0
-23 68 92 0
-26 70 92 0
37 -78 92 0
-14 49 -93 0
23 50 -93 0
-39 -58 -93 0
-14 -61 -93 0
22 -62 -93 0
-24 -75 -93 0
15 77 -93 0
29 -42 93 0
17 -48 93 0
32 62 93 0
32 69 93 0
37 75 93 0
15 80 93 0
24 42 -94 0
25 -45 -94 0
33 50 -94 0
8 59 -94 0
5 -67 -94 0
33 72 -94 0
-29 73 -94 0
-40 78 -94 0
36 44 94 0
-39 -46 94 0
9 -72 94 0
-28 -73 94 0
5 -79 94 0
-3 -42 -95 0
-24 -43 -95 0
-31 47 -95 0
20 53 -95 0
-1 57 -95 0
9 -61 -95 0
9 -69 -95 0
-29 72 -95 0
24 77 -95 0
17 53 95 0
-25 56 95 0
40 -59 95 0
38 -61 95 0
-12 -68 95 0
1 68 95 0
-13 -72 95 0
16 73 95 0
-19 -42 -96 0
28 -44 -96 0
20 -61 -96 0
17 65 -96 0
-16 73 -96 0
-21 41 96 0
15 44 96 0
13 45 96 0
-14 -47 96 0
21 49 96 0
-24 -56 96 0
34 56 96 0
-20 -58 96 0
18 59 96 0
-10 63 96 0
37 71 96 0
1 -75 96 0
30 43 -97 0
-26 -48 -97 0
-28 -53 -97 0
-30 -48 97 0
-31 48 97 0
18 49 97 0
22 49 97 0
-1 50 97 0
19 53 97 0
-8 56 97 0
1 64 97 0
-17 -41 -98 0
19 -43 -98 0
40 -44 -98 0
-18 45 -98 0
39 45 -98 0
23 -49 -98 0
-24 53 -98 0
23 55 -98 0
30 -65 -98 0
-12 65 -98 0
29 70 -98 0
-22 72 -98 0
-29 78 -98 0
-1 44 98 0
11 56 98 0
-40 60 98 0
26 66 98 0
32 69 98 0
-23 73 98 0
9 74 98 0
28 -80 98 0
22 42 -99 0
7 48 -99 0
-3 -50 -99 0
-19 -57 -99 0
-7 -61 -99 0
15 -62 -99 0
24 -65 -99 0
-16 -66 -99 0
-27 72 -99 0
-6 75 -99 0
-17 -76 -99 0
-8 -78 -99 0
3 44 99 0
17 52 99 0
-13 -53 99 0
40 -56 99 0
14 68 99 0
-4 70 99 0
-31 -74 99 0
-36 -41 -100 0
2 -47 -100 0
6 53 -100 0
-7 55 -100 0
-3 56 -100 0
4 60 -100 0
-32 -63 -100 0
39 -63 -100 0
-24 -70 -100 0
-28 -73 -100 0
15 60 100 0
-17 -66 100 0
-19 75 100 0
-39 -50 -101 0
29 -55 -101 0
25 -57 -101 0
37 58 -101 0
-16 -59 -101 0
-29 60 -101 0
-14 63 -101 0
1 66 -101 0
-26 68 -101 0
-1 77 -101 0
-15 78 -101 0
-16 78 -101 0
4 51 101 0
27 53 101 0
10 55 101 0
-5 -58 101 0
-24 65 101 0
-13 -79 101 0
-5 80 101 0
18 -41 -102 0
13 45 -102 0
-28 51 -102 0
-18 53 -102 0
-9 -54 -102 0
26 61 -102 0
24 -73 -102 0
-36 78 -102 0
-5 -41 102 0
5 41 102 0
40 -46 102 0
-28 -47 102 0
23 47 102 0
26 63 102 0
37 -66 102 0
33 66 102 0
-9 48 -103 0
-27 -49 -103 0
6 50 -103 0
-11 54 -103 0
2 57 -103 0
32 60 -103 0
32 -68 -103 0
32 -71 -103 0
29 73 -103 0
22 74 -103 0
-6 77 -103 0
-8 -80 -103 0
-37 -44 103 0
-3 44 103 0
9 44 103 0
5 58 103 0
-34 -61 103 0
1 44 -104 0
-11 -45 -104 0
7 -50 -104 0
-6 -57 -104 0
25 -63 -104 0
4 74 -104 0
33 46 104 0
11 -52 104 0
24 -53 104 0
11 -55 104 0
34 -58 104 0
-19 59 104 0
15 -67 104 0
34 73 104 0
-4 74 104 0
38 74 104 0
-1 -80 104 0
16 46 -105 0
17 53 -105 0
-29 -64 -105 0
-35 -64 -105 0
37 43 105 0
-8 46 105 0
26 -60 105 0
32 -74 105 0
-13 -80 105 0
34 -43 -106 0
-26 -61 -106 0
7 -66 -106 0
-21 -67 -106 0
5 -73 -106 0
-5 -77 -106 0
-15 41 106 0
17 -63 106 0
24 64 106 0
-16 75 106 0
32 -80 106 0
-19 -43 -107 0
11 43 -107 0
-18 44 -107 0
-10 47 -107 0
-19 -50 -107 0
3 78 -107 0
27 78 -107 0
-32 43 107 0
-7 56 107 0
22 -66 107 0
-16 74 107 0
28 76 107 0
33 43 -108 0
9 55 -108 0
1 61 -108 0
9 64 -108 0
-25 65 -108 0
4 71 -108 0
-36 -73 -108 0
34 -74 -108 0
-15 78 -108 0
16 79 -108 0
29 53 108 0
10 56 108 0
-14 69 108 0
-12 -74 108 0
-9 47 -109 0
17 -57 -109 0
-17 -64 -109 0
37 64 -109 0
-29 65 -109 0
40 -73 -109 0
18 -76 -109 0
-5 42 109 0
25 -44 109 0
-35 46 109 0
13 52 109 0
-35 52 109 0
20 -68 109 0
10 69 109 0
21 71 109 0
40 -76 109 0
-29 -52 -110 0
-16 -55 -110 0
26 68 -110 0
19 74 -110 0
-17 -75 -110 0
7 76 -110 0
-14 -78 -110 0
-27 42 110 0
-22 -43 110 0
40 -59 110 0
15 -62 110 0
-18 68 110 0
-39 70 110 0
-26 -77 110 0
-9 77 110 0
-28 -52 -111 0
18 54 -111 0
-8 71 -111 0
29 -72 -111 0
-3 -45 111 0
-1 -58 111 0
-18 60 111 0
-7 45 -112 0
-37 79 -112 0
8 42 112 0
8 44 112 0
34 58 112 0
28 59 112 0
27 62 112 0
-25 63 112 0
-16 -70 112 0
-2 -79 112 0
36 43 -113 0
-39 45 -113 0
-15 -50 -113 0
35 -50 -113 0
-9 53 -113 0
-39 55 -113 0
-4 63 -113 0
31 67 -113 0
11 -71 -113 0
-25 80 -113 0
-23 51 113 0
38 -55 113 0
-13 58 113 0
20 68 113 0
-8 -72 113 0
-38 -76 113 0
-14 80 113 0
8 42 -114 0
1 51 -114 0
13 -65 -114 0
-21 74 -114 0
-2 -75 -114 0
10 -75 -114 0
-22 75 -114 0
40 41 114 0
-8 -47 114 0
-6 -48 114 0
-30 48 114 0
14 54 114 0
5 55 114 0
8 59 114 0
33 -65 114 0
5 65 114 0
-19 -71 114 0
21 -75 114 0
14 -50 -115 0
27 -53 -115 0
-14 -54 -115 0
-37 -57 -115 0
-10 62 -115 0
4 63 -115 0
-27 64 -115 0
7 -67 -115 0
38 75 -115 0
26 -76 -115 0
-14 -43 115 0
17 57 115 0
-39 -60 115 0
-16 62 115 0
12 -64 115 0
-17 -72 115 0
-29 -46 -116 0
9 -50 -116 0
15 51 -116 0
2 -55 -116 0
39 63 -116 0
-7 -65 -116 0
-13 -73 -116 0
-18 -77 -116 0
14 52 116 0
-4 -55 116 0
7 -56 116 0
-27 -56 116 0
1 67 116 0
-2 70 116 0
22 70 116 0
-16 79 116 0
20 79 116 0
23 45 -117 0
-35 -47 -117 0
15 55 -117 0
-20 -61 -117 0
19 62 -117 0
25 80 -117 0
-33 -47 117 0
-8 47 117 0
-33 -49 117 0
-36 54 117 0
-26 55 117 0
-2 -59 117 0
-6 74 117 0
37 -77 117 0
-32 -79 117 0
-19 41 -118 0
-22 43 -118 0
-13 52 -118 0
-24 -59 -118 0
-8 63 -118 0
-8 64 -118 0
7 66 -118 0
-3 -68 -118 0
8 70 -118 0
-22 73 -118 0
-24 -77 -118 0
-24 79 -118 0
35 -48 118 0
-31 -50 118 0
32 50 118 0
-16 -55 118 0
20 62 118 0
-22 62 118 0
31 -69 118 0
7 71 118 0
-1 46 -119 0
25 -59 -119 0
4 67 -119 0
-7 69 -119 0
5 -76 -119 0
33 78 -119 0
23 -44 -120 0
36 62 -120 0
-33 75 -120 0
-22 54 120 0
-22 -57 120 0
28 -59 120 0
